<number of tasks>
50

<cycle time>
1000

<order strength>
0.201


<task times>
1 149
2 122
3 182
4 44
5 98
6 65
7 86
8 40
9 194
10 134
11 206
12 97
13 26
14 156
15 188
16 84
17 107
18 66
19 161
20 87
21 67
22 102
23 151
24 158
25 132
26 97
27 348
28 123
29 46
30 38
31 194
32 111
33 221
34 304
35 45
36 209
37 110
38 134
39 93
40 81
41 108
42 262
43 233
44 133
45 368
46 236
47 60
48 33
49 218
50 33

<precedence relations>
1,6
2,7
3,5
3,8
3,10
3,46
4,9
4,19
5,11
6,13
7,14
8,12
10,32
11,15
12,17
13,16
14,18
14,19
14,20
14,21
14,22
14,23
15,26
16,29
17,28
18,24
18,31
18,33
19,25
20,27
20,40
21,30
21,32
24,34
25,35
26,36
27,37
28,38
29,40
30,39
30,40
34,42
35,42
36,41
37,42
40,43
41,44
42,45
42,46
43,47
43,48
43,49
43,50

<end>
